(set-option :produce-models true); benchmark generated from python API
(set-info :status unknown)
(declare-fun _a_1_ () Real)
(declare-fun _a_0_ () Real)
(declare-fun l_0_0_4 () Real)
(declare-fun l_0_0_3 () Real)
(declare-fun l_0_0_1 () Real)
(declare-fun l_0_0_2 () Real)
(declare-fun l_0_1_6 () Real)
(declare-fun l_0_1_5 () Real)
(declare-fun l_0_1_4 () Real)
(declare-fun l_0_1_3 () Real)
(declare-fun l_0_1_1 () Real)
(declare-fun l_0_1_2 () Real)
(declare-fun l_0_2_8 () Real)
(declare-fun l_0_2_7 () Real)
(declare-fun l_0_2_6 () Real)
(declare-fun l_0_2_5 () Real)
(declare-fun l_0_2_4 () Real)
(declare-fun l_0_2_3 () Real)
(declare-fun l_0_2_1 () Real)
(declare-fun l_0_2_2 () Real)
(declare-fun l_0_3_4 () Real)
(declare-fun l_0_3_3 () Real)
(declare-fun l_0_3_1 () Real)
(declare-fun l_0_3_2 () Real)
(declare-fun l_0_4_6 () Real)
(declare-fun l_0_4_5 () Real)
(declare-fun l_0_4_4 () Real)
(declare-fun l_0_4_3 () Real)
(declare-fun l_0_4_1 () Real)
(declare-fun l_0_4_2 () Real)
(declare-fun l_0_5_8 () Real)
(declare-fun l_0_5_7 () Real)
(declare-fun l_0_5_6 () Real)
(declare-fun l_0_5_5 () Real)
(declare-fun l_0_5_4 () Real)
(declare-fun l_0_5_3 () Real)
(declare-fun l_0_5_1 () Real)
(declare-fun l_0_5_2 () Real)
(assert
 (let ((?x51 (* (/ 2009.0 625.0) (* (+ _a_0_ (* 1.0 _a_1_)) (+ _a_0_ (* 1.0 _a_1_))))))
 (= (- (+ (- (* (- (/ 121.0 500.0)) l_0_0_3) l_0_0_4) ?x51) 20.0) 0.0)))
(assert
 (= (- l_0_0_1) 0.0))
(assert
 (= (- l_0_0_2) 0.0))
(assert
 (= l_0_0_2 0.0))
(assert
 (>= l_0_0_1 0.0))
(assert
 (>= l_0_0_2 0.0))
(assert
 (>= l_0_0_3 0.0))
(assert
 (>= l_0_0_4 0.0))
(assert
 (let ((?x48 (+ _a_0_ (* 1.0 _a_1_))))
 (let ((?x126 (- (- (- (- (* (- (/ 121.0 500.0)) l_0_1_3) l_0_1_4) l_0_1_5) l_0_1_6) (* (* (/ 2009.0 625.0) ?x48) ?x48))))
 (= (+ ?x126 20.0) 0.0))))
(assert
 (= (- l_0_1_1) 0.0))
(assert
 (= (- l_0_1_2) 0.0))
(assert
 (= l_0_1_2 0.0))
(assert
 (>= l_0_1_1 0.0))
(assert
 (>= l_0_1_2 0.0))
(assert
 (>= l_0_1_3 0.0))
(assert
 (>= l_0_1_4 0.0))
(assert
 (>= l_0_1_5 0.0))
(assert
 (>= l_0_1_6 0.0))
(assert
 (let ((?x173 (- (- (- (+ _a_0_ (* 1.0 _a_1_)) (* (/ 121.0 500.0) l_0_2_3)) l_0_2_4) l_0_2_5)))
 (= (- (- (- ?x173 l_0_2_6) l_0_2_7) l_0_2_8) 0.0)))
(assert
 (= (- l_0_2_1) 0.0))
(assert
 (= (- l_0_2_2) 0.0))
(assert
 (= l_0_2_2 0.0))
(assert
 (>= l_0_2_1 0.0))
(assert
 (>= l_0_2_2 0.0))
(assert
 (>= l_0_2_3 0.0))
(assert
 (>= l_0_2_4 0.0))
(assert
 (>= l_0_2_5 0.0))
(assert
 (>= l_0_2_6 0.0))
(assert
 (>= l_0_2_7 0.0))
(assert
 (>= l_0_2_8 0.0))
(assert
 (= (- (* (/ 121.0 500.0) l_0_3_3) l_0_3_4) 0.0))
(assert
 (= (- l_0_3_1) 0.0))
(assert
 (= (- l_0_3_2) 0.0))
(assert
 (= l_0_3_2 0.0))
(assert
 (>= l_0_3_1 0.0))
(assert
 (>= l_0_3_2 0.0))
(assert
 (>= l_0_3_3 0.0))
(assert
 (>= l_0_3_4 0.0))
(assert
 (= (- (- (- (* (/ 121.0 500.0) l_0_4_3) l_0_4_4) l_0_4_5) l_0_4_6) 0.0))
(assert
 (= (- l_0_4_1) 0.0))
(assert
 (= (- l_0_4_2) 0.0))
(assert
 (= l_0_4_2 0.0))
(assert
 (>= l_0_4_1 0.0))
(assert
 (>= l_0_4_2 0.0))
(assert
 (>= l_0_4_3 0.0))
(assert
 (>= l_0_4_4 0.0))
(assert
 (>= l_0_4_5 0.0))
(assert
 (>= l_0_4_6 0.0))
(assert
 (let ((?x264 (- (- (- (+ _a_0_ (* (/ 121.0 500.0) l_0_5_3)) l_0_5_4) l_0_5_5) l_0_5_6)))
 (= (- (- ?x264 l_0_5_7) l_0_5_8) 0.0)))
(assert
 (= (- l_0_5_1) 0.0))
(assert
 (= (- l_0_5_2) 0.0))
(assert
 (= l_0_5_2 0.0))
(assert
 (>= l_0_5_1 0.0))
(assert
 (>= l_0_5_2 0.0))
(assert
 (>= l_0_5_3 0.0))
(assert
 (>= l_0_5_4 0.0))
(assert
 (>= l_0_5_5 0.0))
(assert
 (>= l_0_5_6 0.0))
(assert
 (>= l_0_5_7 0.0))
(assert
 (>= l_0_5_8 0.0))
(check-sat)
(get-model)